c VarName 5 : 2
c VarName 6 : 4
c VarName 7 : 6
c VarName 8 : 8
c VarName 9 : 10
c VarName 10 : 12
c VarName 11 : 14
c VarName 12 : 16
c VarName 13 : 18
c VarName 22 : 36
c VarName 14 : 20
c VarName 15 : 22
c VarName 16 : 24
c VarName 17 : 26
c VarName 18 : 28
c VarName 19 : 30
c VarName 20 : 32
c VarName 21 : 34
c VarName 38 : 68
c VarName 39 : 70
c VarName 23 : 38
c VarName 24 : 40
c VarName 25 : 42
c VarName 26 : 44
c VarName 27 : 46
c VarName 28 : 48
c VarName 29 : 50
c VarName 30 : 52
c VarName 31 : 54
c VarName 32 : 56
c VarName 33 : 58
c VarName 34 : 60
c VarName 35 : 62
c VarName 36 : 64
c VarName 37 : 66
p cnf 631 402
a 5 6 7 8 9 10 11 12 13 14 15 16 17 18 19 20 21 22 23 24 25 26 27 28 29 30 31 32 33 34 35 36 37 38 39 0
e 446 445 527 444 452 453 454 455 456 457 458 459 460 461 462 463 464 465 466 467 468 469 470 471 472 531 630 447 448 449 450 451 510 473 474 475 476 477 478 479 480 481 482 483 484 485 486 487 488 489 490 491 492 493 494 495 496 497 498 499 500 501 502 503 504 505 506 507 508 509 511 512 513 514 515 516 517 518 519 520 521 522 523 524 525 526 528 529 530 532 533 534 628 0
630 0
630 628 0
-630 -628 0
628 -10 -11 12 444 445 446 447 448 449 450 451 452 453 454 455 456 457 458 459 460 461 462 463 464 465 466 467 468 469 470 471 472 473 474 475 476 477 478 479 480 481 482 483 484 485 486 487 488 489 490 491 492 493 494 495 496 497 498 499 500 501 502 503 504 505 506 507 508 509 510 511 512 513 514 515 516 517 518 519 520 521 522 523 524 525 526 527 528 529 530 531 532 533 534 0
-628 10 0
-628 11 0
-628 -12 0
-628 -444 0
-628 -445 0
-628 -446 0
-628 -447 0
-628 -448 0
-628 -449 0
-628 -450 0
-628 -451 0
-628 -452 0
-628 -453 0
-628 -454 0
-628 -455 0
-628 -456 0
-628 -457 0
-628 -458 0
-628 -459 0
-628 -460 0
-628 -461 0
-628 -462 0
-628 -463 0
-628 -464 0
-628 -465 0
-628 -466 0
-628 -467 0
-628 -468 0
-628 -469 0
-628 -470 0
-628 -471 0
-628 -472 0
-628 -473 0
-628 -474 0
-628 -475 0
-628 -476 0
-628 -477 0
-628 -478 0
-628 -479 0
-628 -480 0
-628 -481 0
-628 -482 0
-628 -483 0
-628 -484 0
-628 -485 0
-628 -486 0
-628 -487 0
-628 -488 0
-628 -489 0
-628 -490 0
-628 -491 0
-628 -492 0
-628 -493 0
-628 -494 0
-628 -495 0
-628 -496 0
-628 -497 0
-628 -498 0
-628 -499 0
-628 -500 0
-628 -501 0
-628 -502 0
-628 -503 0
-628 -504 0
-628 -505 0
-628 -506 0
-628 -507 0
-628 -508 0
-628 -509 0
-628 -510 0
-628 -511 0
-628 -512 0
-628 -513 0
-628 -514 0
-628 -515 0
-628 -516 0
-628 -517 0
-628 -518 0
-628 -519 0
-628 -520 0
-628 -521 0
-628 -522 0
-628 -523 0
-628 -524 0
-628 -525 0
-628 -526 0
-628 -527 0
-628 -528 0
-628 -529 0
-628 -530 0
-628 -531 0
-628 -532 0
-628 -533 0
-628 -534 0
444 -5 -6 13 0
-444 5 0
-444 6 0
-444 -13 0
445 5 -13 0
-445 -5 0
-445 13 0
446 6 -13 0
-446 -6 0
-446 13 0
447 -5 -7 14 0
-447 5 0
-447 7 0
-447 -14 0
448 5 -14 0
-448 -5 0
-448 14 0
449 7 -14 0
-449 -7 0
-449 14 0
450 -5 -8 15 0
-450 5 0
-450 8 0
-450 -15 0
451 5 -15 0
-451 -5 0
-451 15 0
452 8 -15 0
-452 -8 0
-452 15 0
453 -5 -9 16 0
-453 5 0
-453 9 0
-453 -16 0
454 5 -16 0
-454 -5 0
-454 16 0
455 9 -16 0
-455 -9 0
-455 16 0
456 -6 -7 17 0
-456 6 0
-456 7 0
-456 -17 0
457 6 -17 0
-457 -6 0
-457 17 0
458 7 -17 0
-458 -7 0
-458 17 0
459 -6 -8 18 0
-459 6 0
-459 8 0
-459 -18 0
460 6 -18 0
-460 -6 0
-460 18 0
461 8 -18 0
-461 -8 0
-461 18 0
462 -6 -9 19 0
-462 6 0
-462 9 0
-462 -19 0
463 6 -19 0
-463 -6 0
-463 19 0
464 9 -19 0
-464 -9 0
-464 19 0
465 -7 -8 20 0
-465 7 0
-465 8 0
-465 -20 0
466 7 -20 0
-466 -7 0
-466 20 0
467 8 -20 0
-467 -8 0
-467 20 0
468 -7 -9 21 0
-468 7 0
-468 9 0
-468 -21 0
469 7 -21 0
-469 -7 0
-469 21 0
470 9 -21 0
-470 -9 0
-470 21 0
471 -8 -9 22 0
-471 8 0
-471 9 0
-471 -22 0
472 8 -22 0
-472 -8 0
-472 22 0
473 9 -22 0
-473 -9 0
-473 22 0
474 -10 11 0
-474 10 0
-474 -11 0
475 10 -11 0
-475 -10 0
-475 11 0
476 -5 23 0
-476 5 0
-476 -23 0
477 5 -23 0
-477 -5 0
-477 23 0
478 -6 24 0
-478 6 0
-478 -24 0
479 6 -24 0
-479 -6 0
-479 24 0
480 -5 -6 25 0
-480 5 0
-480 6 0
-480 -25 0
481 5 -25 0
-481 -5 0
-481 25 0
482 6 -25 0
-482 -6 0
-482 25 0
483 -7 26 0
-483 7 0
-483 -26 0
484 7 -26 0
-484 -7 0
-484 26 0
485 -8 27 0
-485 8 0
-485 -27 0
486 8 -27 0
-486 -8 0
-486 27 0
487 -7 -8 28 0
-487 7 0
-487 8 0
-487 -28 0
488 7 -28 0
-488 -7 0
-488 28 0
489 8 -28 0
-489 -8 0
-489 28 0
490 -28 29 0
-490 28 0
-490 -29 0
491 28 -29 0
-491 -28 0
-491 29 0
492 30 -31 -32 0
-492 -30 0
-492 31 0
-492 32 0
493 -30 31 0
-493 30 0
-493 -31 0
494 -30 32 0
-494 30 0
-494 -32 0
495 -25 33 0
-495 25 0
-495 -33 0
496 25 -33 0
-496 -25 0
-496 33 0
497 -28 -31 34 0
-497 28 0
-497 31 0
-497 -34 0
498 31 -34 0
-498 -31 0
-498 34 0
499 28 -34 0
-499 -28 0
-499 34 0
500 -25 -32 35 0
-500 25 0
-500 32 0
-500 -35 0
501 25 -35 0
-501 -25 0
-501 35 0
502 32 -35 0
-502 -32 0
-502 35 0
503 -9 36 0
-503 9 0
-503 -36 0
504 9 -36 0
-504 -9 0
-504 36 0
505 37 -38 -39 0
-505 -37 0
-505 38 0
-505 39 0
506 -37 38 0
-506 37 0
-506 -38 0
507 -37 39 0
-507 37 0
-507 -39 0
508 12 -37 0
-508 -12 0
-508 37 0
509 -12 37 0
-509 12 0
-509 -37 0
510 -10 13 14 15 16 17 18 19 20 21 22 0
-510 10 0
-510 -13 0
-510 -14 0
-510 -15 0
-510 -16 0
-510 -17 0
-510 -18 0
-510 -19 0
-510 -20 0
-510 -21 0
-510 -22 0
511 10 -13 0
-511 -10 0
-511 13 0
512 10 -14 0
-512 -10 0
-512 14 0
513 10 -15 0
-513 -10 0
-513 15 0
514 10 -16 0
-514 -10 0
-514 16 0
515 10 -17 0
-515 -10 0
-515 17 0
516 10 -18 0
-516 -10 0
-516 18 0
517 10 -19 0
-517 -10 0
-517 19 0
518 10 -20 0
-518 -10 0
-518 20 0
519 10 -21 0
-519 -10 0
-519 21 0
520 10 -22 0
-520 -10 0
-520 22 0
521 23 24 -31 0
-521 -23 0
-521 -24 0
-521 31 0
522 -23 31 0
-522 23 0
-522 -31 0
523 -24 31 0
-523 24 0
-523 -31 0
524 26 27 -32 0
-524 -26 0
-524 -27 0
-524 32 0
525 -26 32 0
-525 26 0
-525 -32 0
526 -27 32 0
-526 27 0
-526 -32 0
527 29 30 33 -39 0
-527 -29 0
-527 -30 0
-527 -33 0
-527 39 0
528 -29 39 0
-528 29 0
-528 -39 0
529 -30 39 0
-529 30 0
-529 -39 0
530 -33 39 0
-530 33 0
-530 -39 0
531 34 35 36 -38 0
-531 -34 0
-531 -35 0
-531 -36 0
-531 38 0
532 -34 38 0
-532 34 0
-532 -38 0
533 -35 38 0
-533 35 0
-533 -38 0
534 -36 38 0
-534 36 0
-534 -38 0
